c This Formular is generated by mcnf
c
c    horn? no 
c    forced? no 
c    mixed sat? no 
c    clause length = 3 
c
p cnf 20  91 
 -13 4 9 0
-4 -14 -5 0
-15 -9 -8 0
20 10 6 0
-16 -7 17 0
-9 -13 10 0
-6 10 8 0
-11 -1 -16 0
-17 1 3 0
-15 11 6 0
-3 -16 -15 0
-8 -6 16 0
-14 -9 4 0
7 20 -3 0
-2 15 17 0
-19 8 -17 0
13 14 -1 0
-14 2 -17 0
19 2 -20 0
7 1 8 0
-20 -13 6 0
%
0

55 95 33 83 61 78 53 13 23 47 9 42 52 38 95 30 3 37 12 12
